50
129650

6312 6312
6891 6891
664 666
4243 4245
8377 8379
7962 7962
6635 6636
4970 4971
7809 7809
5867 5868
9559 9561
3579 3579
8269 8271
2282 2283
4618 4620
2290 2292
1554 1554
4105 4107
8726 8727
9862 9864
2408 2409
5082 5082
1619 1620
1209 1209
5410 5412
7736 7737
9172 9174
1650 1650
5797 5799
7114 7116
5181 5181
3351 3351
9053 9054
7816 7818
7254 7254
8542 8544
4268 4269
1021 1023
8990 8991
231 231
1529 1530
6535 6537
19 21
8087 8088
5459 5460
3997 3999
5329 5331
1032 1032
3131 3132
9299 9300
